0 303.0 225.0
1 309.0 225.0
2 315.0 225.0
3 321.0 225.0
4 327.0 225.0
5 333.0 225.0
6 339.0 225.0
7 345.0 225.0
8 351.0 225.0
9 357.0 225.0
10 363.0 225.0
11 369.0 225.0
12 375.0 225.0
13 381.0 225.0
14 387.0 225.0
15 393.0 225.0
16 399.0 225.0
17 405.0 225.0
18 411.0 225.0
19 417.0 225.0
20 423.0 225.0
21 429.0 225.0
22 435.0 225.0
23 441.0 225.0
24 447.0 225.0
25 453.0 225.0
26 459.0 225.0
27 465.0 225.0
28 471.0 225.0
29 477.0 225.0
30 483.0 225.0
31 489.0 225.0
32 495.0 225.0
33 501.0 225.0
34 507.0 225.0
35 513.0 225.0
36 519.0 225.0
37 525.0 225.0
38 531.0 225.0
39 537.0 225.0
40 543.0 225.0
41 549.0 225.0
42 555.0 225.0
43 558.0 225.0
44 561.0 225.0
45 564.0 225.0
46 567.0 225.0
47 570.0 225.0
48 573.0 225.0
49 576.0 225.0
50 579.0 225.0
51 582.0 225.0
52 585.0 225.0
53 585.0 222.0
54 585.0 219.0
55 585.0 216.0
56 585.0 213.0
57 585.0 210.0
58 585.0 207.0
59 585.0 204.0
60 585.0 201.0
61 585.0 198.0
62 585.0 195.0
63 585.0 189.0
64 585.0 183.0
65 585.0 177.0
66 585.0 171.0
67 585.0 165.0
68 585.0 162.0
69 585.0 159.0
70 585.0 156.0
71 585.0 153.0
72 585.0 150.0
73 585.0 147.0
74 585.0 144.0
75 585.0 141.0
76 585.0 138.0
77 585.0 135.0
78 582.0 135.0
79 579.0 135.0
80 576.0 135.0
81 573.0 135.0
82 570.0 135.0
83 567.0 135.0
84 564.0 135.0
85 561.0 135.0
86 558.0 135.0
87 555.0 135.0
88 555.0 138.0
89 555.0 141.0
90 555.0 144.0
91 555.0 147.0
92 555.0 150.0
93 555.0 153.0
94 555.0 156.0
95 555.0 159.0
96 555.0 162.0
97 555.0 165.0
98 555.0 195.0
99 555.0 195.0
100 549.0 195.0
101 543.0 195.0
102 537.0 195.0
103 531.0 195.0
104 525.0 195.0
105 519.0 195.0
106 513.0 195.0
107 507.0 195.0
108 501.0 195.0
109 495.0 195.0
110 489.0 195.0
111 483.0 195.0
112 477.0 195.0
113 471.0 195.0
114 465.0 195.0
115 459.0 195.0
116 453.0 195.0
117 447.0 195.0
118 441.0 195.0
119 435.0 195.0
120 429.0 195.0
121 423.0 195.0
122 417.0 195.0
123 411.0 195.0
124 405.0 195.0
125 399.0 195.0
126 393.0 195.0
127 387.0 195.0
128 381.0 195.0
129 375.0 195.0
130 369.0 195.0
131 363.0 195.0
132 357.0 195.0
133 351.0 195.0
134 345.0 195.0
135 339.0 195.0
136 333.0 195.0
137 327.0 195.0
138 321.0 195.0
139 315.0 195.0
140 309.0 195.0
141 303.0 195.0
142 297.0 195.0
143 291.0 195.0
144 285.0 195.0
145 279.0 195.0
146 273.0 195.0
147 267.0 195.0
148 261.0 195.0
149 255.0 195.0
150 249.0 195.0
151 243.0 195.0
152 237.0 195.0
153 231.0 195.0
154 225.0 195.0
155 219.0 195.0
156 213.0 195.0
157 207.0 195.0
158 201.0 195.0
159 195.0 195.0
160 189.0 195.0
161 183.0 195.0
162 177.0 195.0
163 171.0 195.0
164 165.0 195.0
165 159.0 195.0
166 153.0 195.0
167 147.0 195.0
168 141.0 195.0
169 135.0 195.0
170 129.0 195.0
171 123.0 195.0
172 117.0 195.0
173 111.0 195.0
174 105.0 195.0
175 99.0 195.0
176 93.0 195.0
177 87.0 195.0
178 81.0 195.0
179 75.0 195.0
180 72.0 195.0
181 69.0 195.0
182 66.0 195.0
183 63.0 195.0
184 60.0 195.0
185 57.0 195.0
186 54.0 195.0
187 51.0 195.0
188 48.0 195.0
189 45.0 195.0
190 45.0 192.0
191 45.0 189.0
192 45.0 186.0
193 45.0 183.0
194 45.0 180.0
195 45.0 177.0
196 45.0 174.0
197 45.0 171.0
198 45.0 168.0
199 45.0 165.0
200 45.0 159.0
201 45.0 153.0
202 45.0 147.0
203 45.0 141.0
204 45.0 135.0
205 45.0 129.0
206 45.0 123.0
207 45.0 117.0
208 45.0 111.0
209 45.0 105.0
210 45.0 102.0
211 45.0 99.0
212 45.0 96.0
213 45.0 93.0
214 45.0 90.0
215 45.0 87.0
216 45.0 84.0
217 45.0 81.0
218 45.0 78.0
219 45.0 75.0
220 42.0 75.0
221 39.0 75.0
222 36.0 75.0
223 33.0 75.0
224 30.0 75.0
225 27.0 75.0
226 24.0 75.0
227 21.0 75.0
228 18.0 75.0
229 15.0 75.0
230 15.0 78.0
231 15.0 81.0
232 15.0 84.0
233 15.0 87.0
234 15.0 90.0
235 15.0 93.0
236 15.0 96.0
237 15.0 99.0
238 15.0 102.0
239 15.0 105.0
240 15.0 111.0
241 15.0 117.0
242 15.0 123.0
243 15.0 129.0
244 15.0 135.0
245 15.0 141.0
246 15.0 147.0
247 15.0 153.0
248 15.0 159.0
249 15.0 165.0
250 15.0 171.0
251 15.0 177.0
252 15.0 183.0
253 15.0 189.0
254 15.0 195.0
255 15.0 198.0
256 15.0 201.0
257 15.0 204.0
258 15.0 207.0
259 15.0 210.0
260 15.0 213.0
261 15.0 216.0
262 15.0 219.0
263 15.0 222.0
264 15.0 225.0
265 18.0 225.0
266 21.0 225.0
267 24.0 225.0
268 27.0 225.0
269 30.0 225.0
270 33.0 225.0
271 36.0 225.0
272 39.0 225.0
273 42.0 225.0
274 45.0 225.0
275 51.0 225.0
276 57.0 225.0
277 63.0 225.0
278 69.0 225.0
279 75.0 225.0
280 81.0 225.0
281 87.0 225.0
282 93.0 225.0
283 99.0 225.0
284 105.0 225.0
285 111.0 225.0
286 117.0 225.0
287 123.0 225.0
288 129.0 225.0
289 135.0 225.0
290 141.0 225.0
291 147.0 225.0
292 153.0 225.0
293 159.0 225.0
294 165.0 225.0
295 171.0 225.0
296 177.0 225.0
297 183.0 225.0
298 189.0 225.0
299 195.0 225.0
300 201.0 225.0
301 207.0 225.0
302 213.0 225.0
303 219.0 225.0
304 225.0 225.0
305 231.0 225.0
306 237.0 225.0
307 243.0 225.0
308 249.0 225.0
309 255.0 225.0
310 261.0 225.0
311 267.0 225.0
312 273.0 225.0
313 279.0 225.0
314 285.0 225.0
315 291.0 225.0
0 297.0 225.0
